100
500
349
349
347
346
344
339
339
339
334
334
330
330
329
324
324
324
323
316
314
309
306
306
302
298
298
298
298
294
292
290
275
274
267
267
259
259
258
249
248
243
243
239
239
229
221
206
204
203
200
195
194
193
191
184
177
174
174
170
166
166
165
164
160
159
158
155
153
149
146
137
134
132
131
123
122
121
117
114
109
107
106
103
102
100
98
87
83
83
78
75
75
73
72
71
65
58
57
57
55
50
